NAME : mr35
COMMENT : 35-city problem (DISC)
TYPE : TSP
DIMENSION : 35
EDGE_WEIGHT_TYPE : EUC_2D
NODE_COORD_SECTION
1 46 84
2 31 98
3 24 62
4 28 87
5 82 25
6 12 65
7 63 31
8 28 25
9 69 55
10 68 12
11 80 35
12 5 64
13 92 84
14 22 36
15 31 24
16 99 81
17 19 61
18 99 50
19 76 94
20 23 66
21 15 68
22 52 32
23 40 13
24 7 16
25 34 77
26 2 52
27 77 47
28 88 76
29 54 96
30 9 14
31 83 95
32 51 12
33 89 100
34 18 45
35 41 15
EOF
